WARNING: for repeatability, setting FPU to use double precision
============================[ Problem Statistics ]=============================
|                                                                             |
|  Number of variables:            50                                         |
|  Number of clauses:             218                                         |
|  Parse time:                   0.00 s                                       |
|                                                                             |
============================[ Search Statistics ]==============================
| Conflicts |          ORIGINAL         |          LEARNT          | Progress |
|           |    Vars  Clauses Literals |    Limit  Clauses Lit/Cl |          |
===============================================================================
===============================================================================
restarts              : 1
conflicts             : 32             (22727 /sec)
decisions             : 50             (0.00 % random) (35511 /sec)
propagations          : 441            (313210 /sec)
conflict literals     : 146            (14.12 % deleted)
Memory used           : 20.00 MB
CPU time              : 0.001408 s

SATISFIABLE
